
Gurobi 10.0.1 (linux64) logging started Sun Nov 26 15:37:27 2023

Set parameter LogFile to value "ArtificialInstance/ExperimentV2/S2T4K2/AdSp/gurobi1.txt"
Gurobi Optimizer version 10.0.1 build v10.0.1rc0 (linux64)

CPU model: AMD EPYC 7H12 64-Core Processor, instruction set [SSE2|AVX|AVX2]
Thread count: 128 physical cores, 128 logical processors, using up to 32 threads

Academic license 656792 - for non-commercial use only - registered to b.___@student.vu.nl
Optimize a model with 6730 rows, 6489 columns and 24713 nonzeros
Model fingerprint: 0x7e6aeac5
Variable types: 0 continuous, 6489 integer (6489 binary)
Coefficient statistics:
  Matrix range     [1e+00, 1e+00]
  Objective range  [2e+00, 2e+01]
  Bounds range     [1e+00, 1e+00]
  RHS range        [1e+00, 1e+00]
Presolve removed 1169 rows and 1196 columns
Presolve time: 0.10s
Presolved: 5561 rows, 5293 columns, 20786 nonzeros
Variable types: 0 continuous, 5293 integer (5293 binary)
Found heuristic solution: objective 343.4266716

Root relaxation: objective 5.786788e+01, 3644 iterations, 0.22 seconds (0.19 work units)

    Nodes    |    Current Node    |     Objective Bounds      |     Work
 Expl Unexpl |  Obj  Depth IntInf | Incumbent    BestBd   Gap | It/Node Time

     0     0   57.86788    0   40  343.42667   57.86788  83.1%     -    0s
H    0     0                      58.8345846   57.86788  1.64%     -    0s
     0     0     cutoff    0        58.83458   58.83458  0.00%     -    0s

Cutting planes:
  Gomory: 2
  Zero half: 2

Explored 1 nodes (5022 simplex iterations) in 0.44 seconds (0.32 work units)
Thread count was 32 (of 128 available processors)

Solution count 2: 58.8346 343.427 

Optimal solution found (tolerance 1.00e-04)
Best objective 5.883458460506e+01, best bound 5.883458460506e+01, gap 0.0000%
